c status 33 1469397797724
c status 25 1469397797727
c status 24 1469397797742
c status 23 1469397797821
c status 22 1469397798167
s td 69 22 100
b 1 13 35 1 24 2
b 2 35 1 24 2 46 57
b 3 18 1 19 20 91 16 17
b 4 99 100 98 97 1 33 71
b 5 100 98 97 1 33 2 71
b 6 95 96 97 94 93 54
b 7 96 98 97 94 93 54
b 8 98 97 1 19 33 2 94 93 71 54 55
b 9 1 19 24 33 20 2 94 93 91 71 46 57 54 55 16 17
b 10 29 31 30 27 28 16
b 11 32 31 30 33 57 34
b 12 31 30 27 24 33 28 57 34 16
b 13 30 27 24 33 28 71 57 34 78 16
b 14 22 21 25 23 20 57
b 15 21 25 23 19 20 57
b 16 26 25 23 27 19 28 51
b 17 25 23 27 19 28 20 57 51 9 16
b 18 27 19 24 33 28 20 71 57 34 78 51 9 16
b 19 19 24 33 28 20 2 94 93 91 70 71 46 57 34 78 54 51 55 9 16 17
b 20 36 37 33 38 34 55
b 21 37 33 38 39 34 55
b 22 58 59 60 61 56 33 55
b 23 60 61 62 56 33 91 55
b 24 61 62 63 56 33 2 91 55
b 25 64 65 66 62 63 70 50
b 26 67 69 65 66 56 28 70 39
b 27 69 65 66 56 28 70 71 39
b 28 65 66 62 63 56 28 70 71 39 34 50
b 29 62 63 56 33 28 2 91 70 71 39 34 50 55
b 30 63 56 33 28 20 2 91 70 71 39 34 50 55
b 31 56 33 28 20 2 91 70 71 39 34 54 50 55
b 32 33 28 20 2 94 93 91 70 71 46 57 38 39 34 78 54 50 51 55 9 16 17
b 33 28 20 2 94 93 91 70 71 46 57 38 39 34 78 54 50 51 55 9 6 16 17
b 34 11 14 12 10 50 9
b 35 15 14 12 16 17
b 36 14 12 10 7 50 9 16 17
b 37 5 4 3 7 57 6
b 38 49 48 4 47 50 51
b 39 48 4 47 45 50 51
b 40 90 79 68 4 3 10 34
b 41 79 68 4 45 3 10 57 34
b 42 68 4 45 3 10 46 57 34 54
b 43 4 47 45 3 10 7 70 46 57 34 54 50 51 6
b 44 44 42 43 47 45
b 45 41 42 43 40 39 78
b 46 42 43 40 47 45 84 39 78
b 47 43 40 47 45 84 75 39 78
b 48 52 53 40 54 50 51 17
b 49 53 40 54 50 51 55 17
b 50 40 47 45 3 84 75 38 39 78 54 50 51 55 17
b 51 47 45 3 84 75 10 7 70 46 57 38 39 34 78 54 50 51 55 6 17
b 52 45 3 84 75 10 7 93 70 46 57 38 39 34 78 54 50 51 55 6 17
b 53 8 77 10 7 9 6
b 54 76 74 77 75 78 55
b 55 73 72 74 75 71 46
b 56 72 74 75 70 71 46
b 57 74 77 75 70 71 46 78 55
b 58 80 81 82 77 7 78
b 59 81 82 77 83 7 38 78
b 60 82 77 83 84 7 38 78
b 61 77 83 84 75 10 7 70 71 46 38 78 55 9 6
b 62 85 86 87 83 84 78
b 63 88 86 87 89 91
b 64 86 87 89 83 84 91 78 51
b 65 92 89 94 93 91
b 66 89 83 84 94 93 91 78 51
b 67 83 84 75 10 7 94 93 91 70 71 46 38 78 51 55 9 6
b 68 84 75 10 7 94 93 91 70 71 46 57 38 39 34 78 54 50 51 55 9 6 17
b 69 10 7 94 93 91 70 71 46 57 38 39 34 78 54 50 51 55 9 6 16 17
1 2
2 9
9 19
19 32
32 33
33 69
69 68
68 52
52 51
68 67
67 61
51 50
51 43
19 18
32 31
31 30
30 29
18 13
9 8
29 28
43 42
18 17
13 12
67 66
61 57
50 47
29 24
28 27
42 41
47 46
27 26
61 60
60 59
50 49
49 48
8 5
5 4
28 25
9 3
17 16
66 64
24 23
41 40
69 36
59 58
64 62
23 22
36 34
61 53
43 37
43 39
39 38
32 21
21 20
8 7
7 6
17 15
12 10
15 14
12 11
57 54
57 56
56 55
46 45
36 35
66 65
64 63
46 44
